instances/shortest_path/discrete_knapsack_uncertainty/nohadani_3_1.kp
10607
92

[7.4656854142502 15.098750875078764 9.730335031838903 9.405514585270192 8.941482010844487 14.38018472850687]

[92 57 79 36 73 74]
